
Gurobi 11.0.3 (linux64) logging started Sun Aug 24 14:39:05 2025

Set parameter LogFile to value "/home/yihong/Coding/OR_SUC/SUC_ALSO_results_bigM100000_thread4/case24_ieee_rts_theta0.1_epsilon0.2_gurobi_seed280000_num_gen10_N_WDR50_load_scaling_factor2_wcvar_T2quadra_cost.txt"
Set parameter TimeLimit to value 3600
Gurobi Optimizer version 11.0.3 build v11.0.3rc0 (linux64 - "Ubuntu 20.04.6 LTS")

CPU model: AMD EPYC 7532 32-Core Processor, instruction set [SSE2|AVX|AVX2]
Thread count: 64 physical cores, 128 logical processors, using up to 4 threads

Academic license 2399124 - for non-commercial use only - registered to yi___@ed.ac.uk
Optimize a model with 8229 rows, 372 columns and 166294 nonzeros
Model fingerprint: 0x06f48d0f
Model has 20 quadratic constraints
Variable types: 352 continuous, 20 integer (20 binary)
Coefficient statistics:
  Matrix range     [9e-07, 5e+04]
  QMatrix range    [2e-03, 8e-03]
  QLMatrix range   [1e+00, 5e+02]
  Objective range  [1e+00, 1e+00]
  Bounds range     [1e+00, 1e+00]
  RHS range        [4e-04, 6e+03]
Presolve removed 1774 rows and 183 columns
Presolve time: 0.15s
Presolved: 6455 rows, 189 columns, 132857 nonzeros
Presolved model has 20 quadratic constraint(s)
Variable types: 169 continuous, 20 integer (20 binary)

Root relaxation: objective 4.128026e+03, 154 iterations, 0.07 seconds (0.08 work units)

    Nodes    |    Current Node    |     Objective Bounds      |     Work
 Expl Unexpl |  Obj  Depth IntInf | Incumbent    BestBd   Gap | It/Node Time

     0     0 4128.02629    0    2          - 4128.02629      -     -    0s
     0     0 97423.1492    0    8          - 97423.1492      -     -    0s
     0     0 97729.0602    0    6          - 97729.0602      -     -    0s
     0     0 97729.0602    0    6          - 97729.0602      -     -    0s
H    0     0                    134334.18978 97729.0602  27.2%     -    0s
     0     0 130800.380    0    6 134334.190 130800.380  2.63%     -    0s
     0     0 131227.688    0    6 134334.190 131227.688  2.31%     -    0s
     0     0 131414.097    0    6 134334.190 131414.097  2.17%     -    1s
H    0     0                    132605.53644 131551.553  0.79%     -    2s
     0     0 132269.580    0    8 132605.536 132269.580  0.25%     -    2s
     0     0 132269.580    0    6 132605.536 132269.580  0.25%     -    2s
     0     0 132269.580    0    6 132605.536 132269.580  0.25%     -    2s
     0     0 132269.580    0    6 132605.536 132269.580  0.25%     -    3s
     0     0 132269.580    0    6 132605.536 132269.580  0.25%     -    3s
     0     0 132269.581    0    6 132605.536 132269.581  0.25%     -    3s
     0     0 132269.581    0    6 132605.536 132269.581  0.25%     -    3s
     0     2 132269.581    0    6 132605.536 132269.581  0.25%     -    4s
    25     0          -    3      132605.536 132269.581  0.25%   9.6    5s
*   29     2               3    132427.85330 132269.581  0.12%   8.4    5s
    30     4 132269.581    4    1 132427.853 132269.581  0.12%   8.1   10s
*   32     0               5    132269.57904 132269.579  0.00%   7.6   16s

Cutting planes:
  Implied bound: 6
  MIR: 4
  Flow cover: 5
  Inf proof: 1

Explored 36 nodes (645 simplex iterations) in 16.50 seconds (12.54 work units)
Thread count was 4 (of 128 available processors)

Solution count 5: 132270 132270 132428 ... 134334

Optimal solution found (tolerance 1.00e-03)
Warning: max constraint violation (2.2684e-06) exceeds tolerance
Best objective 1.322695790398e+05, best bound 1.322695790398e+05, gap 0.0000%
